webassembly/ejemplos_dzn/3/folder3_json_69.dzn
TERM = { '.', 's(2)', 's(4)', 's(1)', 's(0)', 's(3)'};
null = '.';
s = 3;
n = 8;
ndeps = 2;
max_registers_sz = 3;
NR = 0;
registers = [| |];
dependencies = [|'call[function_index(0)]_0', 'i32.load8_s_1', |'call[function_index(0)]_0', 'i32.load_2'|];
GET_ENUM = { GET1, GET2, GET3};
SET_ENUM = { SET1, SET2, SET3};
TEE_ENUM = { TEE1, TEE2, TEE3};
N = 3;
OP = { 'call[function_index(0)]_0', 'i32.load8_s_1', 'i32.load_2' };
in_ops = [0, 1, 1 ];
out_ops = [3, 1, 1 ];
in1 = ['.', 's(2)', 's(3)' ];
in2 = ['.', '.', '.' ];
in3 = ['.', '.', '.' ];
out1 = ['s(2)', 's(3)', 's(4)' ];
out2 = ['s(1)', '.', '.' ];
out3 = ['s(0)', '.', '.' ];
comm = [false, false, false ];
gas = [1, 1, 1 ];
sz = [1, 1, 1 ];
stor = [true, false, false ];
lb = [ 1, 1, 1 ];
ub = [ 3, 3, 3 ];
startstack = [ null, null, null, null, null, null, null, null ];
endstack = [ 's(4)', 's(1)', 's(0)', null, null, null, null, null ];
