webassembly/ejemplos_results/folder3_json_69.txt
value = 3;
fgas = [1, 1, 1];
fsize = [1, 1, 1];
states = 
[|    '.',    '.',    '.', '.', '.', '.', '.', '.'
 | 's(2)', 's(1)', 's(0)', '.', '.', '.', '.', '.'
 | 's(3)', 's(3)', 's(0)', '.', '.', '.', '.', '.'
 | 's(4)', 's(1)', 's(0)', '.', '.', '.', '.', '.'
 |];
register_states = 
[| '.', '.', '.'
 | '.', '.', '.'
 | '.', '.', '.'
 | '.', '.', '.'
 |];
program = [O('call[function_index(0)]_0'), O('i32.load8_s_1'), O('i32.load_2')];
% time elapsed: 0.05 s
----------
==========
% time elapsed: 0.05 s
% [value > 2]
